width = 35;
n_circuits = 22;
dims = [|14,35,
|4,23,
|4,20,
|4,17,
|3,22,
|3,19,
|4,12,
|3,12,
|4,8,
|3,10,
|4,7,
|3,9,
|3,8,
|4,6,
|3,7,
|4,5,
|3,6,
|4,4,
|3,5,
|3,4,
|4,3,
|3,3,|];
max_makespan = 42;
